data/solutions/planning/wellformed/moderate/weighting/wellformed_moderate_instance33_gurobi.sol
Elapsed time: 0.11
Nodes explored: 515
Nodes left: 131
Relative gap: 0.0
Upper bound: 11378.0
Lower bound: 11378
C[0]=759.0
C[1]=758.0
C[2]=758.0
C[3]=758.0
y[0]=2
y[1]=3
y[2]=2
y[3]=3
y[4]=0
y[5]=2
y[6]=1
y[7]=2
y[8]=1
y[9]=2
y[10]=2
y[11]=1
y[12]=3
y[13]=0
y[14]=3
y[15]=1
y[16]=3
y[17]=3
y[18]=3
y[19]=3
y[20]=0
y[21]=1
y[22]=2
y[23]=0
y[24]=0
y[25]=3
y[26]=0
y[27]=1
y[28]=3
y[29]=2
